Optimal - objective value 3150.01217607
      0 C0000000               0                       0
      1 C0000001               0                       0
      2 C0000002               0                       0
      3 C0000003               0                       0
      4 C0000004               0                       0
      5 C0000005               0                       0
      6 C0000006               0                       0
      7 C0000007               0                       0
      8 C0000008               0                       0
      9 C0000009               0                       0
     10 C0000010               1                       0
     11 C0000011               1                       0
     12 C0000012               1                       0
     13 C0000013               1                       0
     14 C0000014               1                       0
     15 C0000015               1                       0
     16 C0000016               1                       0
     17 C0000017               1                       0
     18 C0000018               1                       0
     19 C0000019               1                       0
     20 C0000020               1                       0
     21 C0000021               1                       0
     22 C0000022               1                       0
     23 C0000023               1                       0
     24 C0000024               1                       0
     25 C0000025               1                       0
     26 C0000026               1                       0
     27 C0000027               1                       0
     28 C0000028               1                       0
     29 C0000029               1                       0
     30 C0000030              10                       0
     31 C0000031               1                       0
     32 C0000032              -2                       0
     33 C0000033              -5                       0
     34 C0000034              -3                       0
     35 C0000035               9                       0
     36 C0000036              -4                       0
     37 C0000037               2                       0
     38 C0000038              -7                       0
     39 C0000039               9                       0
     40 C0000040              -3                       0
     41 C0000041              -6                       0
     42 C0000042              -4                       0
     43 C0000043              -2                       0
     44 C0000044              -5                       0
     45 C0000045               1                       0
     46 C0000046              -8                       0
     47 C0000047               2                       0
     48 C0000048               3                       0
     49 C0000049              -3                       0
     50 C0000050               9                       0
     51 C0000051               1                       0
     52 C0000052              -2                       0
     53 C0000053               4                       0
     54 C0000054              -5                       0
     55 C0000055               5                       0
     56 C0000056               6                       0
     57 C0000057               3                       0
     58 C0000058               2                       0
     59 C0000059               4                       0
     60 C0000060               1                       0
     61 C0000061               7                       0
     62 C0000062               8                       0
     63 C0000063               3                       0
     64 C0000064               4                       0
     65 C0000065               1                       0
     66 C0000066              -2                       0
     67 C0000067               2                       0
     68 C0000068               9                       0
     69 C0000069               5                       0
     70 C0000070              -4                       0
     71 C0000071               1                       0
     72 C0000072               2                       0
     73 C0000073               9                       0
     74 C0000074              -4                       0
     75 C0000075              -2                       0
     76 C0000076              -3                       0
     77 C0000077               3                       0
     78 C0000078              -6                       0
     79 C0000079               4                       0
     80 C0000080               5                       0
     81 C0000081               2                       0
     82 C0000082               9                       0
     83 C0000083               1                       0
     84 C0000084               3                       0
     85 C0000085               6                       0
     86 C0000086              -3                       0
     87 C0000087              -2                       0
     88 C0000088               9                       0
     89 C0000089              -4                       0
     90 C0000090              -7                       0
     91 C0000091              -5                       0
     92 C0000092              -3                       0
     93 C0000093              -6                       0
     94 C0000094              -9                       0
     95 C0000095               7                       0
     96 C0000096               8                       0
     97 C0000097               5                       0
     98 C0000098               2                       0
     99 C0000099               4                       0
    100 C0000100               6                       0
    101 C0000101               3                       0
    102 C0000102               9                       0
      0 X0000000               5                       0
      1 X0000001               3                       0
      2 X0000002               6                       0
      3 X0000003               0                       0
      4 X0000004               9                       0
      5 X0000005               2                       0
      6 X0000006               1                       0
      7 X0000007               4                       0
      8 X0000008               7                       0
      9 X0000009               0               692.16034
     10 X0000010               1                144.0707
     11 X0000011               0                908.5897
     12 X0000012               0               622.04988
     13 X0000013               0               984.98283
     14 X0000014               0               810.18936
     15 X0000015               0               551.13356
     16 X0000016               0               194.84507
     17 X0000017               0               947.91139
     18 X0000018               0               692.16034
     19 X0000019               0               634.47161
     20 X0000020               0               562.87484
     21 X0000021               0               256.76442
     22 X0000022               0               348.87214
     23 X0000023               0               378.40933
     24 X0000024               1               423.77316
     25 X0000025               0               503.29486
     26 X0000026               0               690.35874
     27 X0000027               0                144.0707
     28 X0000028               0               634.47161
     29 X0000029               0               777.55905
     30 X0000030               0               518.67545
     31 X0000031               0               894.82724
     32 X0000032               0               694.24279
     33 X0000033               0               589.99266
     34 X0000034               1               151.52785
     35 X0000035               0               809.51621
     36 X0000036               0                908.5897
     37 X0000037               0               562.87484
     38 X0000038               0               777.55905
     39 X0000039               0               363.24307
     40 X0000040               0               421.48567
     41 X0000041               1               187.92912
     42 X0000042               0               941.39423
     43 X0000043               0               742.09401
     44 X0000044               0               146.98464
     45 X0000045               0               622.04988
     46 X0000046               0               256.76442
     47 X0000047               0               518.67545
     48 X0000048               0               363.24307
     49 X0000049               0               387.70568
     50 X0000050               0                213.2586
     51 X0000051               0               584.39724
     52 X0000052               0               435.25399
     53 X0000053               1               472.87699
     54 X0000054               0               984.98283
     55 X0000055               1               348.87214
     56 X0000056               0               894.82724
     57 X0000057               0               421.48567
     58 X0000058               0               387.70568
     59 X0000059               0               287.59003
     60 X0000060               0               765.48158
     61 X0000061               0               790.73113
     62 X0000062               0               558.63789
     63 X0000063               0               810.18936
     64 X0000064               0               378.40933
     65 X0000065               0               694.24279
     66 X0000066               0               187.92912
     67 X0000067               0                213.2586
     68 X0000068               1               287.59003
     69 X0000069               0               766.75591
     70 X0000070               0               626.75965
     71 X0000071               0               318.44572
     72 X0000072               1               551.13356
     73 X0000073               0               423.77316
     74 X0000074               0               589.99266
     75 X0000075               0               941.39423
     76 X0000076               0               584.39724
     77 X0000077               0               765.48158
     78 X0000078               0               766.75591
     79 X0000079               0               446.51197
     80 X0000080               0               1047.0457
     81 X0000081               0               194.84507
     82 X0000082               0               503.29486
     83 X0000083               0               151.52785
     84 X0000084               0               742.09401
     85 X0000085               1               435.25399
     86 X0000086               0               790.73113
     87 X0000087               0               626.75965
     88 X0000088               0               446.51197
     89 X0000089               0               798.01318
     90 X0000090               0               947.91139
     91 X0000091               0               690.35874
     92 X0000092               0               809.51621
     93 X0000093               1               146.98464
     94 X0000094               0               472.87699
     95 X0000095               0               558.63789
     96 X0000096               0               318.44572
     97 X0000097               0               1047.0457
     98 X0000098               0               798.01318
